35 48 27 31 98 95 81 23 99 79 82 61 6 60 33 65 97 1 36 68 52 11 55 12 15 58 67 75 13 21 37 69 71 7 83 77 44 87 17 93 24 62 50 84 43 47 54 59 70 18 3 26 96 53 0 94 45 56 42 89 41 14 32 72 5 20 25 8 85 64 29 86 10 91 30 34 39 4 63 90 22 9 19 38 88 74 28 80 78 73 76 2 66 57 16 51 49 46 40 92